words_hard_train/1953.qaiger
aag 229 24 0 1 205
2
4
8
16
18
50
58
86
94
130
140
164
188
212
220
240
276
284
304
340
348
366
406
428
458
6 2 4
10 6 9
12 7 8
14 11 13
20 16 18
22 17 19
24 21 23
26 15 24
28 14 25
30 27 29
32 2 16
34 30 33
36 3 17
38 37 31
40 35 39
42 33 27
44 43 29
46 8 4
48 47 7
52 49 50
54 48 51
56 53 55
60 23 58
62 22 59
64 61 63
66 57 65
68 56 64
70 67 69
72 45 71
74 44 70
76 73 75
78 40 77
80 75 69
82 50 4
84 48 83
88 85 87
90 84 86
92 89 91
96 63 94
98 62 95
100 97 99
102 92 101
104 93 100
106 103 105
108 80 107
110 81 106
112 109 111
114 79 112
116 78 113
118 115 117
120 41 76
122 121 79
124 36 30
126 125 39
128 37 33
132 131 17
134 130 16
136 133 135
138 128 136
142 25 141
144 24 140
146 143 145
148 135 147
150 134 146
152 149 151
154 139 153
156 127 155
158 138 152
160 157 159
162 151 145
166 65 165
168 64 164
170 167 169
172 162 171
174 163 170
176 173 175
178 161 176
180 123 179
182 160 177
184 181 183
186 175 169
190 101 189
192 100 188
194 191 193
196 186 195
198 187 194
200 197 199
202 184 200
204 119 203
206 185 201
208 205 207
210 199 193
214 99 212
216 98 213
218 215 217
222 219 221
224 218 220
226 223 225
228 210 227
230 211 226
232 229 231
234 111 105
236 86 4
238 84 237
242 239 240
244 238 241
246 243 245
248 247 219
250 246 218
252 249 251
254 234 253
256 235 252
258 255 257
260 117 258
262 116 259
264 261 263
266 232 264
268 209 267
270 233 265
272 269 271
274 231 225
278 217 276
280 216 277
282 279 281
286 283 285
288 282 284
290 287 289
292 274 291
294 275 290
296 293 295
298 257 251
300 240 4
302 238 301
306 303 304
308 302 305
310 307 309
312 311 283
314 310 282
316 313 315
318 298 317
320 299 316
322 319 321
324 263 322
326 262 323
328 325 327
330 296 328
332 273 331
334 297 329
336 333 335
338 295 289
342 281 340
344 280 341
346 343 345
350 347 349
352 346 348
354 351 353
356 338 355
358 339 354
360 357 359
362 321 315
364 309 4
368 365 367
370 364 366
372 369 371
374 373 347
376 372 346
378 375 377
380 362 379
382 363 378
384 381 383
386 327 384
388 326 385
390 387 389
392 360 390
394 337 393
396 361 391
398 395 397
400 399 389
402 308 4
404 402 367
408 344 407
410 345 406
412 409 411
414 404 412
416 405 413
418 415 417
420 383 377
422 419 421
424 418 420
426 423 425
430 412 429
432 413 428
434 431 433
436 359 353
438 434 437
440 435 436
442 439 441
444 427 442
446 400 445
448 398 388
450 444 448
452 447 451
454 426 443
456 454 449
458 452 457
i0 2 y1[0]
i1 2 y1[7]
i2 2 y1[1]
i3 1 x1[0]
i4 1 x1[1]
i5 2 y1[2]
i6 1 x1[2]
i7 2 y1[3]
i8 1 x1[3]
i9 1 x2[0]
i10 1 x2[1]
i11 1 x2[2]
i12 1 x2[3]
i13 1 x1[4]
i14 1 x2[4]
i15 2 y1[4]
i16 1 x1[5]
i17 1 x2[5]
i18 2 y1[5]
i19 1 x1[6]
i20 1 x2[6]
i21 2 y1[6]
i22 1 x1[7]
i23 1 x2[7]
o0 bv[0]
c
simplified
  <=
    subtract
      abs
        2 y1
      1 x1
    subtract
      1 x2
      1 x1
