words_hard_train/1953.qaiger.qdimacs
p cnf 229 616
a 65 70 8 9 106 138 170 203 110 47 142 174 82 214 29 94 0
e 1 2 3 4 5 6 7 10 11 12 13 14 15 16 17 18 19 20 21 22 23 24 25 26 27 28 30 31 32 33 34 35 36 37 38 39 40 41 42 43 44 45 46 48 49 50 51 52 53 54 55 56 57 58 59 60 61 62 63 64 66 67 68 69 71 72 73 74 75 76 77 78 79 80 81 83 84 85 86 87 88 89 90 91 92 93 95 96 97 98 99 100 101 102 103 104 105 107 108 109 111 112 113 114 115 116 117 118 119 120 121 122 123 124 125 126 127 128 129 130 131 132 133 134 135 136 137 139 140 141 143 144 145 146 147 148 149 150 151 152 153 154 155 156 157 158 159 160 161 162 163 164 165 166 167 168 169 171 172 173 175 176 177 178 179 180 181 182 183 184 185 186 187 188 189 190 191 192 193 194 195 196 197 198 199 200 201 202 204 205 206 207 208 209 210 211 212 213 215 216 217 218 219 220 221 222 223 224 225 226 227 228 229 0
-1 -2 3 0
1 -3 0
2 -3 0
-3 4 5 0
3 -5 0
-4 -5 0
3 -4 6 0
-3 -6 0
4 -6 0
5 6 7 0
-5 -7 0
-6 -7 0
-8 -9 10 0
8 -10 0
9 -10 0
8 9 11 0
-8 -11 0
-9 -11 0
10 11 12 0
-10 -12 0
-11 -12 0
7 -12 13 0
-7 -13 0
12 -13 0
-7 12 14 0
7 -14 0
-12 -14 0
13 14 15 0
-13 -15 0
-14 -15 0
-1 -8 16 0
1 -16 0
8 -16 0
-15 16 17 0
15 -17 0
-16 -17 0
1 8 18 0
-1 -18 0
-8 -18 0
18 15 19 0
-18 -19 0
-15 -19 0
17 19 20 0
-17 -20 0
-19 -20 0
16 13 21 0
-16 -21 0
-13 -21 0
21 14 22 0
-21 -22 0
-14 -22 0
-4 -2 23 0
4 -23 0
2 -23 0
23 3 24 0
-23 -24 0
-3 -24 0
24 -25 26 0
-24 -26 0
25 -26 0
-24 25 27 0
24 -27 0
-25 -27 0
26 27 28 0
-26 -28 0
-27 -28 0
11 -29 30 0
-11 -30 0
29 -30 0
-11 29 31 0
11 -31 0
-29 -31 0
30 31 32 0
-30 -32 0
-31 -32 0
28 32 33 0
-28 -33 0
-32 -33 0
-28 -32 34 0
28 -34 0
32 -34 0
33 34 35 0
-33 -35 0
-34 -35 0
22 35 36 0
-22 -36 0
-35 -36 0
-22 -35 37 0
22 -37 0
35 -37 0
36 37 38 0
-36 -38 0
-37 -38 0
-20 38 39 0
20 -39 0
-38 -39 0
37 34 40 0
-37 -40 0
-34 -40 0
-25 -2 41 0
25 -41 0
2 -41 0
-24 41 42 0
24 -42 0
-41 -42 0
42 43 44 0
-42 -44 0
-43 -44 0
-42 -43 45 0
42 -45 0
43 -45 0
44 45 46 0
-44 -46 0
-45 -46 0
31 -47 48 0
-31 -48 0
47 -48 0
-31 47 49 0
31 -49 0
-47 -49 0
48 49 50 0
-48 -50 0
-49 -50 0
-46 50 51 0
46 -51 0
-50 -51 0
46 -50 52 0
-46 -52 0
50 -52 0
51 52 53 0
-51 -53 0
-52 -53 0
-40 53 54 0
40 -54 0
-53 -54 0
40 -53 55 0
-40 -55 0
53 -55 0
54 55 56 0
-54 -56 0
-55 -56 0
39 -56 57 0
-39 -57 0
56 -57 0
-39 56 58 0
39 -58 0
-56 -58 0
57 58 59 0
-57 -59 0
-58 -59 0
20 -38 60 0
-20 -60 0
38 -60 0
60 39 61 0
-60 -61 0
-39 -61 0
-18 -15 62 0
18 -62 0
15 -62 0
62 19 63 0
-62 -63 0
-19 -63 0
18 16 64 0
-18 -64 0
-16 -64 0
65 8 66 0
-65 -66 0
-8 -66 0
-65 -8 67 0
65 -67 0
8 -67 0
66 67 68 0
-66 -68 0
-67 -68 0
-64 -68 69 0
64 -69 0
68 -69 0
12 70 71 0
-12 -71 0
-70 -71 0
-12 -70 72 0
12 -72 0
70 -72 0
71 72 73 0
-71 -73 0
-72 -73 0
67 73 74 0
-67 -74 0
-73 -74 0
-67 -73 75 0
67 -75 0
73 -75 0
74 75 76 0
-74 -76 0
-75 -76 0
69 76 77 0
-69 -77 0
-76 -77 0
63 77 78 0
-63 -78 0
-77 -78 0
-69 -76 79 0
69 -79 0
76 -79 0
78 79 80 0
-78 -80 0
-79 -80 0
75 72 81 0
-75 -81 0
-72 -81 0
32 82 83 0
-32 -83 0
-82 -83 0
-32 -82 84 0
32 -84 0
82 -84 0
83 84 85 0
-83 -85 0
-84 -85 0
-81 85 86 0
81 -86 0
-85 -86 0
81 -85 87 0
-81 -87 0
85 -87 0
86 87 88 0
-86 -88 0
-87 -88 0
80 -88 89 0
-80 -89 0
88 -89 0
61 89 90 0
-61 -90 0
-89 -90 0
-80 88 91 0
80 -91 0
-88 -91 0
90 91 92 0
-90 -92 0
-91 -92 0
87 84 93 0
-87 -93 0
-84 -93 0
50 94 95 0
-50 -95 0
-94 -95 0
-50 -94 96 0
50 -96 0
94 -96 0
95 96 97 0
-95 -97 0
-96 -97 0
-93 97 98 0
93 -98 0
-97 -98 0
93 -97 99 0
-93 -99 0
97 -99 0
98 99 100 0
-98 -100 0
-99 -100 0
-92 -100 101 0
92 -101 0
100 -101 0
59 101 102 0
-59 -102 0
-101 -102 0
92 100 103 0
-92 -103 0
-100 -103 0
102 103 104 0
-102 -104 0
-103 -104 0
99 96 105 0
-99 -105 0
-96 -105 0
49 -106 107 0
-49 -107 0
106 -107 0
-49 106 108 0
49 -108 0
-106 -108 0
107 108 109 0
-107 -109 0
-108 -109 0
109 110 111 0
-109 -111 0
-110 -111 0
-109 -110 112 0
109 -112 0
110 -112 0
111 112 113 0
-111 -113 0
-112 -113 0
-105 113 114 0
105 -114 0
-113 -114 0
105 -113 115 0
-105 -115 0
113 -115 0
114 115 116 0
-114 -116 0
-115 -116 0
55 52 117 0
-55 -117 0
-52 -117 0
-43 -2 118 0
43 -118 0
2 -118 0
-42 118 119 0
42 -119 0
-118 -119 0
119 -120 121 0
-119 -121 0
120 -121 0
-119 120 122 0
119 -122 0
-120 -122 0
121 122 123 0
-121 -123 0
-122 -123 0
123 109 124 0
-123 -124 0
-109 -124 0
-123 -109 125 0
123 -125 0
109 -125 0
124 125 126 0
-124 -126 0
-125 -126 0
-117 126 127 0
117 -127 0
-126 -127 0
117 -126 128 0
-117 -128 0
126 -128 0
127 128 129 0
-127 -129 0
-128 -129 0
58 -129 130 0
-58 -130 0
129 -130 0
-58 129 131 0
58 -131 0
-129 -131 0
130 131 132 0
-130 -132 0
-131 -132 0
-116 -132 133 0
116 -133 0
132 -133 0
104 133 134 0
-104 -134 0
-133 -134 0
116 132 135 0
-116 -135 0
-132 -135 0
134 135 136 0
-134 -136 0
-135 -136 0
115 112 137 0
-115 -137 0
-112 -137 0
108 -138 139 0
-108 -139 0
138 -139 0
-108 138 140 0
108 -140 0
-138 -140 0
139 140 141 0
-139 -141 0
-140 -141 0
141 142 143 0
-141 -143 0
-142 -143 0
-141 -142 144 0
141 -144 0
142 -144 0
143 144 145 0
-143 -145 0
-144 -145 0
-137 145 146 0
137 -146 0
-145 -146 0
137 -145 147 0
-137 -147 0
145 -147 0
146 147 148 0
-146 -148 0
-147 -148 0
128 125 149 0
-128 -149 0
-125 -149 0
-120 -2 150 0
120 -150 0
2 -150 0
-119 150 151 0
119 -151 0
-150 -151 0
151 -152 153 0
-151 -153 0
152 -153 0
-151 152 154 0
151 -154 0
-152 -154 0
153 154 155 0
-153 -155 0
-154 -155 0
155 141 156 0
-155 -156 0
-141 -156 0
-155 -141 157 0
155 -157 0
141 -157 0
156 157 158 0
-156 -158 0
-157 -158 0
-149 158 159 0
149 -159 0
-158 -159 0
149 -158 160 0
-149 -160 0
158 -160 0
159 160 161 0
-159 -161 0
-160 -161 0
131 -161 162 0
-131 -162 0
161 -162 0
-131 161 163 0
131 -163 0
-161 -163 0
162 163 164 0
-162 -164 0
-163 -164 0
-148 -164 165 0
148 -165 0
164 -165 0
136 165 166 0
-136 -166 0
-165 -166 0
148 164 167 0
-148 -167 0
-164 -167 0
166 167 168 0
-166 -168 0
-167 -168 0
147 144 169 0
-147 -169 0
-144 -169 0
140 -170 171 0
-140 -171 0
170 -171 0
-140 170 172 0
140 -172 0
-170 -172 0
171 172 173 0
-171 -173 0
-172 -173 0
173 174 175 0
-173 -175 0
-174 -175 0
-173 -174 176 0
173 -176 0
174 -176 0
175 176 177 0
-175 -177 0
-176 -177 0
-169 177 178 0
169 -178 0
-177 -178 0
169 -177 179 0
-169 -179 0
177 -179 0
178 179 180 0
-178 -180 0
-179 -180 0
160 157 181 0
-160 -181 0
-157 -181 0
154 -2 182 0
-154 -182 0
2 -182 0
182 183 184 0
-182 -184 0
-183 -184 0
-182 -183 185 0
182 -185 0
183 -185 0
184 185 186 0
-184 -186 0
-185 -186 0
186 173 187 0
-186 -187 0
-173 -187 0
-186 -173 188 0
186 -188 0
173 -188 0
187 188 189 0
-187 -189 0
-188 -189 0
-181 189 190 0
181 -190 0
-189 -190 0
181 -189 191 0
-181 -191 0
189 -191 0
190 191 192 0
-190 -192 0
-191 -192 0
163 -192 193 0
-163 -193 0
192 -193 0
-163 192 194 0
163 -194 0
-192 -194 0
193 194 195 0
-193 -195 0
-194 -195 0
-180 -195 196 0
180 -196 0
195 -196 0
168 196 197 0
-168 -197 0
-196 -197 0
180 195 198 0
-180 -198 0
-195 -198 0
197 198 199 0
-197 -199 0
-198 -199 0
199 194 200 0
-199 -200 0
-194 -200 0
-154 -2 201 0
154 -201 0
2 -201 0
-201 183 202 0
201 -202 0
-183 -202 0
-172 203 204 0
172 -204 0
-203 -204 0
172 -203 205 0
-172 -205 0
203 -205 0
204 205 206 0
-204 -206 0
-205 -206 0
-202 -206 207 0
202 -207 0
206 -207 0
202 206 208 0
-202 -208 0
-206 -208 0
207 208 209 0
-207 -209 0
-208 -209 0
191 188 210 0
-191 -210 0
-188 -210 0
209 210 211 0
-209 -211 0
-210 -211 0
-209 -210 212 0
209 -212 0
210 -212 0
211 212 213 0
-211 -213 0
-212 -213 0
-206 214 215 0
206 -215 0
-214 -215 0
206 -214 216 0
-206 -216 0
214 -216 0
215 216 217 0
-215 -217 0
-216 -217 0
179 176 218 0
-179 -218 0
-176 -218 0
-217 218 219 0
217 -219 0
-218 -219 0
217 -218 220 0
-217 -220 0
218 -220 0
219 220 221 0
-219 -221 0
-220 -221 0
213 -221 222 0
-213 -222 0
221 -222 0
-200 222 223 0
200 -223 0
-222 -223 0
-199 -194 224 0
199 -224 0
194 -224 0
-222 -224 225 0
222 -225 0
224 -225 0
223 225 226 0
-223 -226 0
-225 -226 0
-213 221 227 0
213 -227 0
-221 -227 0
-227 224 228 0
227 -228 0
-224 -228 0
-226 228 229 0
226 -229 0
-228 -229 0
229 0
